NAME: tsp_35
TYPE: TSP
DIMENSION: 35
EDGE_WEIGHT_TYPE: EUC_2D
NODE_COORD_SECTION
1 17 41
2 12 193
3 54 19
4 69 39
5 11 13
6 13 214
7 21 342
8 3 13
9 28 8
10 22 309
11 58 15
12 59 371
13 2 45
14 82 332
15 82 69
16 52 66
17 70 352
18 61 270
19 41 327
20 32 38
21 93 47
22 28 142
23 46 16
24 43 273
25 88 396
26 23 369
27 32 398
28 94 247
29 86 272
30 94 76
31 26 101
32 57 35
33 0 112
34 33 232
35 88 55
EOF
